data/solutions/recovery/wellformed/moderate/binding/wellformed_moderate_instance76/20.sol
Elapsed time: 0.03
Upper bound: 2086.0
Planning weighted value: 139673.0
C[0]=2086.0
C[1]=1925.0
C[2]=1895.0
C[3]=1732.0
C[4]=1643.0
C[5]=0.0
y[0]=2
y[1]=4
y[2]=2
y[3]=3
y[4]=3
y[5]=1
y[6]=0
y[7]=0
y[8]=0
y[9]=1
y[10]=3
y[11]=1
y[12]=1
y[13]=2
y[14]=1
y[15]=1
y[16]=4
y[17]=3
y[18]=1
y[19]=4
